p edge 55 725
e 3 1
e 4 1
e 4 3
e 5 1
e 5 2
e 5 3
e 6 2
e 6 3
e 8 3
e 8 5
e 8 6
e 9 2
e 9 3
e 9 4
e 9 6
e 9 7
e 9 8
e 10 3
e 10 7
e 11 1
e 11 7
e 11 8
e 12 1
e 12 2
e 12 3
e 12 4
e 12 5
e 12 6
e 12 11
e 13 3
e 13 4
e 13 5
e 13 6
e 13 7
e 13 8
e 13 10
e 14 2
e 14 3
e 14 4
e 14 5
e 14 8
e 15 1
e 15 2
e 15 5
e 15 6
e 15 10
e 16 2
e 16 5
e 16 7
e 16 9
e 16 15
e 17 3
e 17 5
e 17 6
e 17 7
e 17 8
e 17 12
e 17 13
e 17 14
e 18 1
e 18 2
e 18 4
e 18 5
e 18 6
e 18 7
e 18 12
e 19 2
e 19 3
e 19 5
e 19 6
e 19 7
e 19 10
e 19 11
e 19 12
e 19 14
e 19 15
e 19 18
e 20 1
e 20 6
e 20 7
e 20 10
e 20 13
e 20 19
e 21 2
e 21 5
e 21 6
e 21 10
e 21 11
e 21 14
e 21 16
e 21 18
e 21 20
e 22 2
e 22 3
e 22 4
e 22 11
e 22 14
e 22 15
e 22 17
e 22 18
e 22 19
e 22 20
e 22 21
e 23 2
e 23 3
e 23 10
e 23 11
e 23 13
e 23 14
e 23 16
e 23 17
e 23 18
e 23 20
e 23 21
e 24 1
e 24 3
e 24 5
e 24 6
e 24 8
e 24 11
e 24 13
e 24 14
e 24 15
e 24 16
e 24 18
e 24 19
e 24 20
e 24 22
e 25 1
e 25 5
e 25 6
e 25 7
e 25 8
e 25 11
e 25 12
e 25 13
e 25 14
e 25 15
e 25 16
e 25 17
e 25 18
e 25 20
e 25 21
e 25 22
e 25 23
e 25 24
e 26 2
e 26 4
e 26 5
e 26 8
e 26 9
e 26 14
e 26 15
e 26 17
e 26 18
e 26 19
e 26 22
e 26 24
e 26 25
e 27 3
e 27 4
e 27 5
e 27 6
e 27 7
e 27 15
e 27 16
e 27 18
e 27 19
e 27 22
e 27 24
e 27 25
e 28 1
e 28 4
e 28 5
e 28 7
e 28 12
e 28 13
e 28 17
e 28 18
e 28 19
e 28 21
e 28 22
e 28 25
e 28 27
e 29 2
e 29 4
e 29 6
e 29 7
e 29 8
e 29 9
e 29 12
e 29 14
e 29 15
e 29 16
e 29 20
e 29 21
e 29 23
e 29 26
e 29 27
e 29 28
e 30 1
e 30 2
e 30 3
e 30 6
e 30 7
e 30 10
e 30 11
e 30 12
e 30 13
e 30 18
e 30 19
e 30 20
e 30 21
e 30 25
e 30 26
e 30 28
e 30 29
e 31 2
e 31 3
e 31 4
e 31 7
e 31 9
e 31 11
e 31 13
e 31 16
e 31 17
e 31 18
e 31 19
e 31 21
e 31 22
e 31 26
e 31 30
e 32 2
e 32 3
e 32 8
e 32 9
e 32 11
e 32 14
e 32 15
e 32 16
e 32 18
e 32 19
e 32 22
e 32 25
e 32 26
e 32 27
e 32 28
e 33 1
e 33 4
e 33 5
e 33 6
e 33 8
e 33 9
e 33 11
e 33 13
e 33 15
e 33 16
e 33 18
e 33 20
e 33 23
e 33 26
e 33 30
e 33 32
e 34 4
e 34 11
e 34 12
e 34 13
e 34 15
e 34 17
e 34 18
e 34 19
e 34 20
e 34 23
e 34 24
e 34 25
e 34 28
e 34 30
e 35 3
e 35 5
e 35 6
e 35 8
e 35 10
e 35 11
e 35 13
e 35 15
e 35 17
e 35 21
e 35 24
e 35 25
e 35 28
e 35 31
e 35 32
e 35 33
e 36 1
e 36 3
e 36 6
e 36 8
e 36 10
e 36 16
e 36 18
e 36 19
e 36 22
e 36 27
e 36 29
e 36 30
e 37 1
e 37 4
e 37 6
e 37 13
e 37 14
e 37 15
e 37 16
e 37 17
e 37 18
e 37 20
e 37 22
e 37 27
e 37 30
e 37 31
e 37 34
e 37 35
e 37 36
e 38 2
e 38 3
e 38 4
e 38 5
e 38 6
e 38 7
e 38 8
e 38 11
e 38 13
e 38 25
e 38 26
e 38 27
e 38 28
e 38 29
e 38 30
e 38 31
e 38 32
e 38 33
e 38 37
e 39 3
e 39 4
e 39 6
e 39 9
e 39 11
e 39 12
e 39 13
e 39 14
e 39 19
e 39 20
e 39 22
e 39 24
e 39 27
e 39 30
e 39 33
e 39 36
e 39 37
e 40 4
e 40 6
e 40 12
e 40 16
e 40 17
e 40 18
e 40 21
e 40 22
e 40 23
e 40 24
e 40 25
e 40 26
e 40 30
e 40 32
e 40 37
e 40 38
e 40 39
e 41 4
e 41 5
e 41 6
e 41 8
e 41 9
e 41 11
e 41 13
e 41 16
e 41 17
e 41 18
e 41 25
e 41 28
e 41 31
e 41 32
e 41 33
e 41 35
e 41 36
e 41 37
e 41 38
e 41 40
e 42 1
e 42 2
e 42 4
e 42 6
e 42 7
e 42 11
e 42 12
e 42 13
e 42 16
e 42 18
e 42 19
e 42 20
e 42 23
e 42 27
e 42 28
e 42 31
e 42 32
e 42 33
e 42 38
e 42 39
e 42 40
e 43 1
e 43 4
e 43 6
e 43 8
e 43 9
e 43 11
e 43 12
e 43 15
e 43 17
e 43 19
e 43 22
e 43 24
e 43 25
e 43 27
e 43 29
e 43 30
e 43 31
e 43 32
e 43 33
e 43 35
e 43 36
e 43 38
e 43 39
e 43 42
e 44 2
e 44 4
e 44 5
e 44 7
e 44 9
e 44 13
e 44 14
e 44 15
e 44 18
e 44 19
e 44 23
e 44 24
e 44 27
e 44 28
e 44 30
e 44 32
e 44 36
e 44 38
e 44 40
e 44 43
e 45 3
e 45 5
e 45 6
e 45 12
e 45 13
e 45 15
e 45 17
e 45 18
e 45 21
e 45 22
e 45 24
e 45 25
e 45 27
e 45 28
e 45 31
e 45 32
e 45 33
e 45 34
e 45 37
e 45 42
e 45 43
e 46 1
e 46 3
e 46 5
e 46 8
e 46 10
e 46 11
e 46 12
e 46 14
e 46 17
e 46 21
e 46 23
e 46 24
e 46 25
e 46 27
e 46 28
e 46 30
e 46 34
e 46 38
e 46 39
e 46 41
e 46 44
e 46 45
e 47 1
e 47 4
e 47 15
e 47 16
e 47 18
e 47 19
e 47 21
e 47 22
e 47 26
e 47 27
e 47 29
e 47 34
e 47 36
e 47 38
e 47 39
e 47 42
e 47 43
e 47 44
e 47 45
e 47 46
e 48 3
e 48 4
e 48 5
e 48 6
e 48 7
e 48 8
e 48 11
e 48 12
e 48 19
e 48 23
e 48 26
e 48 32
e 48 34
e 48 35
e 48 36
e 48 37
e 48 40
e 48 41
e 48 42
e 48 46
e 49 3
e 49 5
e 49 8
e 49 9
e 49 10
e 49 11
e 49 12
e 49 13
e 49 14
e 49 18
e 49 19
e 49 20
e 49 21
e 49 22
e 49 23
e 49 24
e 49 27
e 49 29
e 49 30
e 49 34
e 49 35
e 49 36
e 49 37
e 49 42
e 49 44
e 49 45
e 50 1
e 50 2
e 50 5
e 50 6
e 50 7
e 50 8
e 50 9
e 50 11
e 50 12
e 50 15
e 50 16
e 50 17
e 50 18
e 50 21
e 50 23
e 50 27
e 50 28
e 50 29
e 50 30
e 50 34
e 50 35
e 50 40
e 50 43
e 50 45
e 50 46
e 50 48
e 50 49
e 51 1
e 51 3
e 51 6
e 51 7
e 51 12
e 51 15
e 51 23
e 51 24
e 51 25
e 51 27
e 51 28
e 51 29
e 51 31
e 51 32
e 51 33
e 51 34
e 51 36
e 51 39
e 51 40
e 51 43
e 51 44
e 51 45
e 51 48
e 51 50
e 52 2
e 52 4
e 52 7
e 52 14
e 52 15
e 52 19
e 52 20
e 52 22
e 52 23
e 52 25
e 52 26
e 52 27
e 52 34
e 52 35
e 52 36
e 52 37
e 52 41
e 52 46
e 52 50
e 52 51
e 53 2
e 53 4
e 53 5
e 53 6
e 53 8
e 53 9
e 53 14
e 53 15
e 53 16
e 53 20
e 53 25
e 53 26
e 53 27
e 53 28
e 53 29
e 53 32
e 53 33
e 53 35
e 53 37
e 53 38
e 53 40
e 53 44
e 53 46
e 53 47
e 53 48
e 53 49
e 53 50
e 54 1
e 54 2
e 54 5
e 54 7
e 54 8
e 54 9
e 54 10
e 54 11
e 54 14
e 54 18
e 54 20
e 54 21
e 54 23
e 54 24
e 54 26
e 54 28
e 54 29
e 54 31
e 54 32
e 54 33
e 54 36
e 54 38
e 54 40
e 54 41
e 54 42
e 54 43
e 54 44
e 54 48
e 54 49
e 54 53
e 55 1
e 55 3
e 55 4
e 55 8
e 55 9
e 55 10
e 55 14
e 55 20
e 55 22
e 55 23
e 55 26
e 55 27
e 55 29
e 55 31
e 55 34
e 55 36
e 55 38
e 55 39
e 55 40
e 55 42
e 55 43
e 55 44
e 55 46
e 55 47
e 55 48
e 55 50
e 55 51
e 55 53
